\ This file was automatically generated by Zimpl
\ param m := read "teams.txt" as "1n" use 1;
\ param MAX := read "teams.txt" as "2n" use 1;
\ set days := {0 .. m-1};
\ set teams := {read "teams.txt" as "<1n>" skip 1};
\ set pairs := teams * teams;
\ set index := days * pairs;
\ param d[pairs] := read "dist.txt" as "<1n, 2n> 3n";
\ var M[index] binary;
\ maximize games: sum <k,2,j> in index: M[k,2,j];
\ subto playOnce: forall <k,j> in days * teams do     sum <k,i,j> in index: M[k,i,j] <= 1;
\ subto maxDist: forall <k,i,j> in index do      M[k,i,j] * d[i,j] <= MAX;
\Problem name: model.zpl
Maximize
 games:  + M#0#2#0 + M#0#2#1 + M#0#2#2 + M#0#2#3 + M#1#2#0 + M#1#2#1
  + M#1#2#2 + M#1#2#3 + M#2#2#0 + M#2#2#1 + M#2#2#2 + M#2#2#3
 
Subject to
 playOnce_1:
  + M#0#3#0 + M#0#2#0 + M#0#1#0 + M#0#0#0 <= 1
 playOnce_2:
  + M#0#3#1 + M#0#2#1 + M#0#1#1 + M#0#0#1 <= 1
 playOnce_3:
  + M#0#3#2 + M#0#2#2 + M#0#1#2 + M#0#0#2 <= 1
 playOnce_4:
  + M#0#3#3 + M#0#2#3 + M#0#1#3 + M#0#0#3 <= 1
 playOnce_5:
  + M#1#3#0 + M#1#2#0 + M#1#1#0 + M#1#0#0 <= 1
 playOnce_6:
  + M#1#3#1 + M#1#2#1 + M#1#1#1 + M#1#0#1 <= 1
 playOnce_7:
  + M#1#3#2 + M#1#2#2 + M#1#1#2 + M#1#0#2 <= 1
 playOnce_8:
  + M#1#3#3 + M#1#2#3 + M#1#1#3 + M#1#0#3 <= 1
 playOnce_9:
  + M#2#3#0 + M#2#2#0 + M#2#1#0 + M#2#0#0 <= 1
 playOnce_10:
  + M#2#3#1 + M#2#2#1 + M#2#1#1 + M#2#0#1 <= 1
 playOnce_11:
  + M#2#3#2 + M#2#2#2 + M#2#1#2 + M#2#0#2 <= 1
 playOnce_12:
  + M#2#3#3 + M#2#2#3 + M#2#1#3 + M#2#0#3 <= 1
 maxDist_1:
  + M#0#0#0 <= 10
 maxDist_2:
  + M#0#0#1 <= 10
 maxDist_3:
  +11 M#0#0#2 <= 10
 maxDist_4:
  +11 M#0#0#3 <= 10
 maxDist_5:
  + M#0#1#0 <= 10
 maxDist_6:
  + M#0#1#1 <= 10
 maxDist_7:
  +11 M#0#1#2 <= 10
 maxDist_8:
  +11 M#0#1#3 <= 10
 maxDist_9:
  +11 M#0#2#0 <= 10
 maxDist_10:
  +11 M#0#2#1 <= 10
 maxDist_11:
  + M#0#2#2 <= 10
 maxDist_12:
  + M#0#2#3 <= 10
 maxDist_13:
  +11 M#0#3#0 <= 10
 maxDist_14:
  +11 M#0#3#1 <= 10
 maxDist_15:
  + M#0#3#2 <= 10
 maxDist_16:
  + M#0#3#3 <= 10
 maxDist_17:
  + M#1#0#0 <= 10
 maxDist_18:
  + M#1#0#1 <= 10
 maxDist_19:
  +11 M#1#0#2 <= 10
 maxDist_20:
  +11 M#1#0#3 <= 10
 maxDist_21:
  + M#1#1#0 <= 10
 maxDist_22:
  + M#1#1#1 <= 10
 maxDist_23:
  +11 M#1#1#2 <= 10
 maxDist_24:
  +11 M#1#1#3 <= 10
 maxDist_25:
  +11 M#1#2#0 <= 10
 maxDist_26:
  +11 M#1#2#1 <= 10
 maxDist_27:
  + M#1#2#2 <= 10
 maxDist_28:
  + M#1#2#3 <= 10
 maxDist_29:
  +11 M#1#3#0 <= 10
 maxDist_30:
  +11 M#1#3#1 <= 10
 maxDist_31:
  + M#1#3#2 <= 10
 maxDist_32:
  + M#1#3#3 <= 10
 maxDist_33:
  + M#2#0#0 <= 10
 maxDist_34:
  + M#2#0#1 <= 10
 maxDist_35:
  +11 M#2#0#2 <= 10
 maxDist_36:
  +11 M#2#0#3 <= 10
 maxDist_37:
  + M#2#1#0 <= 10
 maxDist_38:
  + M#2#1#1 <= 10
 maxDist_39:
  +11 M#2#1#2 <= 10
 maxDist_40:
  +11 M#2#1#3 <= 10
 maxDist_41:
  +11 M#2#2#0 <= 10
 maxDist_42:
  +11 M#2#2#1 <= 10
 maxDist_43:
  + M#2#2#2 <= 10
 maxDist_44:
  + M#2#2#3 <= 10
 maxDist_45:
  +11 M#2#3#0 <= 10
 maxDist_46:
  +11 M#2#3#1 <= 10
 maxDist_47:
  + M#2#3#2 <= 10
 maxDist_48:
  + M#2#3#3 <= 10
Bounds
 0 <= M#0#0#0 <= 1
 0 <= M#0#0#1 <= 1
 0 <= M#0#0#2 <= 1
 0 <= M#0#0#3 <= 1
 0 <= M#0#1#0 <= 1
 0 <= M#0#1#1 <= 1
 0 <= M#0#1#2 <= 1
 0 <= M#0#1#3 <= 1
 0 <= M#0#2#0 <= 1
 0 <= M#0#2#1 <= 1
 0 <= M#0#2#2 <= 1
 0 <= M#0#2#3 <= 1
 0 <= M#0#3#0 <= 1
 0 <= M#0#3#1 <= 1
 0 <= M#0#3#2 <= 1
 0 <= M#0#3#3 <= 1
 0 <= M#1#0#0 <= 1
 0 <= M#1#0#1 <= 1
 0 <= M#1#0#2 <= 1
 0 <= M#1#0#3 <= 1
 0 <= M#1#1#0 <= 1
 0 <= M#1#1#1 <= 1
 0 <= M#1#1#2 <= 1
 0 <= M#1#1#3 <= 1
 0 <= M#1#2#0 <= 1
 0 <= M#1#2#1 <= 1
 0 <= M#1#2#2 <= 1
 0 <= M#1#2#3 <= 1
 0 <= M#1#3#0 <= 1
 0 <= M#1#3#1 <= 1
 0 <= M#1#3#2 <= 1
 0 <= M#1#3#3 <= 1
 0 <= M#2#0#0 <= 1
 0 <= M#2#0#1 <= 1
 0 <= M#2#0#2 <= 1
 0 <= M#2#0#3 <= 1
 0 <= M#2#1#0 <= 1
 0 <= M#2#1#1 <= 1
 0 <= M#2#1#2 <= 1
 0 <= M#2#1#3 <= 1
 0 <= M#2#2#0 <= 1
 0 <= M#2#2#1 <= 1
 0 <= M#2#2#2 <= 1
 0 <= M#2#2#3 <= 1
 0 <= M#2#3#0 <= 1
 0 <= M#2#3#1 <= 1
 0 <= M#2#3#2 <= 1
 0 <= M#2#3#3 <= 1
General
 M#0#0#0
 M#0#0#1
 M#0#0#2
 M#0#0#3
 M#0#1#0
 M#0#1#1
 M#0#1#2
 M#0#1#3
 M#0#2#0
 M#0#2#1
 M#0#2#2
 M#0#2#3
 M#0#3#0
 M#0#3#1
 M#0#3#2
 M#0#3#3
 M#1#0#0
 M#1#0#1
 M#1#0#2
 M#1#0#3
 M#1#1#0
 M#1#1#1
 M#1#1#2
 M#1#1#3
 M#1#2#0
 M#1#2#1
 M#1#2#2
 M#1#2#3
 M#1#3#0
 M#1#3#1
 M#1#3#2
 M#1#3#3
 M#2#0#0
 M#2#0#1
 M#2#0#2
 M#2#0#3
 M#2#1#0
 M#2#1#1
 M#2#1#2
 M#2#1#3
 M#2#2#0
 M#2#2#1
 M#2#2#2
 M#2#2#3
 M#2#3#0
 M#2#3#1
 M#2#3#2
 M#2#3#3
End
